6246
1 1 0 1 0 1 0 0 1 1 0 0 1 1 1 0 0 1 0 1 
0 0 0 0 1 0 1 1 1 3 3 3 3 3 3 5 5 5 5 5 5 5 5 5 9 5 5 9 5 5 5 8 8 8 8 8 9 9 9 9 9 9 12 12 12 8 8 8 13 13 12 13 13 12 13 14 14 12 14 13 0 14 14 14 14 17 17 17 17 17 17 17 17 19 19 19 19 19 19 19 
